50

99 7 316
98 30 422
98 16 365
97 11 398
96 26 321
90 2 369
88 19 343
86 16 338
82 13 388
82 16 471
80 20 306
79 4 296
76 6 228
76 16 236
76 18 445
74 8 467
69 10 383
67 12 206
66 17 464
64 5 390
62 15 453
59 14 283
55 15 308
52 13 352
51 15 213
51 5 202
50 5 280
49 8 190
44 7 280
43 11 456
41 13 310
41 8 412
41 8 211
41 2 203
41 10 362
37 11 268
35 2 450
33 6 231
32 10 330
32 9 247
31 4 248
31 9 428
31 4 469
30 7 412
29 1 398
23 3 382
23 2 200
22 5 119
20 2 252
20 3 268
